outputs/case_338.smt2
; SMT2 file generated from compliance case automatic
; Case ID: case_338
; Generated at: 2025-10-21T07:33:57.681482
;
; This file can be executed with Z3:
;   z3 case_338.smt2
;

(set-logic ALL)

; ============================================================
; Variable Declarations
; ============================================================

(declare-const internal_control_established Bool)
(declare-const internal_control_executed Bool)
(declare-const internal_control_system_established Bool)
(declare-const internal_control_system_executed Bool)
(declare-const internal_handling_established Bool)
(declare-const internal_handling_executed Bool)
(declare-const internal_handling_system_established Bool)
(declare-const internal_handling_system_executed Bool)
(declare-const penalty Bool)

; ============================================================
; Constraints (Legal Rules)
; ============================================================

; [insurance:internal_control_established] 建立內部控制及稽核制度
(assert (= internal_control_established internal_control_system_established))

; [insurance:internal_control_executed] 執行內部控制及稽核制度
(assert (= internal_control_executed internal_control_system_executed))

; [insurance:internal_handling_established] 建立內部處理制度及程序
(assert (= internal_handling_established internal_handling_system_established))

; [insurance:internal_handling_executed] 執行內部處理制度及程序
(assert (= internal_handling_executed internal_handling_system_executed))

; [meta:penalty_default_false] 預設不處罰
(assert (not penalty))

; [meta:penalty_conditions] 處罰條件：未建立或未執行內部控制或稽核制度，或未建立或未執行內部處理制度或程序時處罰
(assert (= penalty
   (or (not internal_control_established)
       (not internal_control_executed)
       (not internal_handling_established)
       (not internal_handling_executed))))

; ============================================================
; Facts (Case Specific)
; ============================================================

(assert (= internal_control_system_established false))
(assert (= internal_control_system_executed false))
(assert (= internal_handling_system_established false))
(assert (= internal_handling_system_executed false))
(assert (= internal_control_established false))
(assert (= internal_control_executed false))
(assert (= internal_handling_established false))
(assert (= internal_handling_executed false))
(assert (= penalty true))

; ============================================================
; Check Satisfiability
; ============================================================

(check-sat)
(get-model)

; ============================================================
; Additional Information
; ============================================================
; Total constraints: 6
; Total variables: 9
; Total facts: 9
;
; Expected result:
;   - If UNSAT: Case violates legal rules
;   - If SAT: Case complies with legal rules (or error in constraints)
