outputs/case_338.model.txt
internal_handling_established = True
internal_control_executed = True
internal_control_system_established = True
penalty = False
internal_handling_system_established = True
internal_handling_system_executed = True
internal_handling_executed = True
internal_control_established = True
internal_control_system_executed = True